circuit_heights=[3, 4, 5, 6, 7, 8, 9, 10, 11, 12, 13, 14, 21, 22, 25, 34, 4, 5, 11, 14, 34];
circuit_widths=[3, 3, 3, 3, 3, 3, 3, 3, 3, 3, 3, 3, 3, 3, 3, 3, 4, 4, 4, 4, 12];
max_height=272;
min_height=34;
n_circuits=21;
plate_width=34;
